103234
31,39,81,74,10,32,6,26,15,37,1,29,34,27,7,82,52,58,67,43,21,4,18,30,23,47,20,70,65,35,25,75,19,66,13,69,61,79,28,9,0,63,72,44,45,53,12,36,17,64,49,3,62,38,51,40,77,60,5,78,14,68,24,41,54,22,11,2,42,56,33,48,46,59,80,71,50,55,16,76,8,57,73
